HUN,8,6,364
2,12,1,10,0,22,4,30,3,2,5,2
2,3,1,3,0,16,3,21,5,13,4,23
2,26,1,22,0,28,3,16,5,10,4,18
1,29,2,25,0,3,3,9,5,26,4,3
1,15,2,13,0,26,5,30,4,25,3,13
2,25,1,6,0,15,5,6,4,9,3,29
1,21,2,27,0,23,3,18,4,29,5,24
1,29,0,27,2,29,3,8,5,28,4,3
